************************************************************************
file with basedata            : md361_.bas
initial value random generator: 2082584789
************************************************************************
projects                      :  1
jobs (incl. supersource/sink ):  22
horizon                       :  130
RESOURCES
  - renewable                 :  2   R
  - nonrenewable              :  2   N
  - doubly constrained        :  0   D
************************************************************************
PROJECT INFORMATION:
pronr.  #jobs rel.date duedate tardcost  MPM-Time
    1     20      0       22        9       22
************************************************************************
PRECEDENCE RELATIONS:
jobnr.    #modes  #successors   successors
   1        1          3           2   3   4
   2        3          3           5   6  21
   3        3          3           9  19  21
   4        3          2          18  19
   5        3          1           7
   6        3          3          11  12  14
   7        3          3           8  11  12
   8        3          2          13  14
   9        3          2          10  15
  10        3          2          12  17
  11        3          3          15  16  17
  12        3          1          18
  13        3          2          16  20
  14        3          3          15  16  17
  15        3          1          18
  16        3          1          19
  17        3          1          20
  18        3          1          20
  19        3          1          22
  20        3          1          22
  21        3          1          22
  22        1          0        
************************************************************************
REQUESTS/DURATIONS:
jobnr. mode duration  R 1  R 2  N 1  N 2
------------------------------------------------------------------------
  1      1     0       0    0    0    0
  2      1     1       3    0    9    8
         2     2       0    9    9    8
         3     5       0    6    8    7
  3      1     6       0    6    9   10
         2     7       0    4    9    9
         3    10       0    4    7    8
  4      1     4       0    3   10    8
         2     5       1    0    9    6
         3     6       0    3    9    3
  5      1     1       0    4    9    4
         2     2       0    3    6    4
         3     3       0    3    5    3
  6      1     1       0    7    9    5
         2     1      10    0    6    5
         3     2       0    8    2    3
  7      1     2       0    8    2    7
         2     2       0    7    2    8
         3     9       9    0    2    6
  8      1     3       0    7    8    7
         2     5       8    0    7    5
         3     7       8    0    7    4
  9      1     3       0    5    9    3
         2     5       5    0    7    2
         3     6       5    0    2    2
 10      1     5       0    9    9    5
         2     5       8    0    7    4
         3     5       0    9    7    6
 11      1     3       6    0    2    9
         2     6       6    0    1    9
         3     7       6    0    1    7
 12      1     2       0    1   10    9
         2     6       3    0   10    7
         3     7       3    0    9    6
 13      1     1       0    6    8    8
         2     1       6    0    9    8
         3     8       5    0    6    8
 14      1     2      10    0    8   10
         2     5       0    6    7    7
         3     9       9    0    6    5
 15      1     3       0    8    8    8
         2     4       0    5    6    5
         3     5       0    2    5    5
 16      1     3       5    0    8    2
         2     5       0    1    4    1
         3     7       2    0    2    1
 17      1     3       9    0    9    5
         2     6       0    8    9    5
         3     8       0    6    8    5
 18      1     3       0    6   10    9
         2     6      10    0    9    9
         3     6       0    5   10    9
 19      1     4       8    0    7    9
         2     6       0    5    5    6
         3     7       8    0    4    4
 20      1     3       6    0    6    9
         2     5       0   10    4    8
         3     6       0    5    4    4
 21      1     2       0    7    3    7
         2     2       2    0    3    8
         3     7       0    7    2    5
 22      1     0       0    0    0    0
************************************************************************
RESOURCEAVAILABILITIES:
  R 1  R 2  N 1  N 2
   10    9  130  122
************************************************************************
MAXIMAL LAGS:
from  to  type  delay
    1   12   ES      0
    1    2   ES      0
    2   12   ES      0
    1    3   ES      0
    3   12   ES      0
    1    4   ES      0
    4   12   ES      0
    1    5   ES      0
    5   12   ES      0
    1    6   ES      0
    6   12   ES      0
    1    7   ES      0
    7   12   ES      0
    1    8   ES      0
    8   12   ES      0
    1    9   ES      0
    9   12   ES      0
    1   10   ES      0
   10   12   ES      0
    1   11   ES      0
   11   12   ES      0
    1   12   ES      0
    2    5   SS     12
    2    5   SE      3
    2    5   ES      7
    2    5   EE      0
    2    6   SS      2
    2    6   SE    -11
    2    6   ES      1
    2    6   EE    -12
    2   21   SS     -1
    2   21   SE     -1
    2   21   ES      5
    2   21   EE      8
    3    9   SS     -9
    3    9   SE      3
    3    9   ES     -5
    3    9   EE     -2
    3   19   SS      2
    3   19   SE      7
    3   19   ES     -8
    3   19   EE     -9
    3   21   SS     10
    3   21   SE     -9
   21    3   SE      0
    3   21   ES      0
    3   21   EE     -8
    4   18   SS     -2
    4   18   SE    -12
    4   18   ES      0
    4   18   EE     10
    4   19   SS      6
    4   19   SE      5
    4   19   ES      7
    4   19   EE     -6
    5    7   SS     -1
    5    7   SE     12
    5    7   ES     -4
    5    7   EE      0
    6   11   SS     -3
    6   11   SE      0
    6   11   ES     -6
    6   11   EE      6
    6   14   SS      5
    6   14   SE     10
    6   14   ES      7
    6   14   EE      2
    7    8   SS    -12
    7    8   SE     -9
    7    8   ES     -3
    7    8   EE      9
    7   11   SS      8
    7   11   SE      8
    7   11   ES     -2
    7   11   EE     -1
    8   13   SS      3
    8   13   SE    -12
    8   13   ES     -5
    8   13   EE      7
    8   14   SS     10
    8   14   SE     -5
    8   14   ES     -4
    8   14   EE      9
    9   10   SS     -8
    9   10   SE      3
    9   10   ES     10
    9   10   EE     -9
    9   15   SS     11
    9   15   SE      5
    9   15   ES      0
    9   15   EE      0
   10   17   SS     11
   10   17   SE      6
   10   17   ES     -8
   10   17   EE     -1
   11   15   SS     -2
   11   15   SE     -8
   11   15   ES      7
   11   15   EE      8
   11   16   SS    -11
   11   16   SE     -2
   11   16   ES    -12
   11   16   EE      7
   11   17   SS     -7
   11   17   SE      0
   11   17   ES    -11
   11   17   EE    -12
   12   18   SS    -11
   12   18   SE      9
   12   18   ES    -10
   12   18   EE     -9
   13   16   SS      9
   13   16   SE     12
   13   16   ES     11
   13   16   EE    -11
   13   20   SS    -10
   13   20   SE     -2
   13   20   ES      1
   13   20   EE    -10
   14   15   SS      1
   14   15   SE    -10
   14   15   ES      6
   14   15   EE      2
   14   16   SS     -6
   14   16   SE      5
   14   16   ES     -4
   14   16   EE     -4
   14   17   SS     12
   14   17   SE     11
   14   17   ES      7
   14   17   EE      8
   15   18   SS      4
   15   18   SE    -10
   15   18   ES     -8
   15   18   EE    -10
   16   19   SS     -5
   16   19   SE    -12
   16   19   ES    -11
   16   19   EE      9
   17   20   SS     11
   17   20   SE      5
   17   20   ES      4
   17   20   EE     -8
   18   20   SS      8
   18   20   SE     12
   18   20   ES     -6
   18   20   EE      4
   19   22   SS     -3
   19   22   SE      9
   19   22   ES      0
   19   22   EE      6
   20   22   SS      7
   20   22   SE    -11
   20   22   ES     12
   20   22   EE      9
   21   22   SS      9
   21   22   SE     10
   21   22   ES      5
   21   22   EE      0
************************************************************************
